solving instance mcf arcs c100_400_30_V_T_10 3 6 square
presolving:
(round 1, fast)       538 del vars, 506 del conss, 0 add conss, 1131 chg bounds, 0 chg sides, 0 chg coeffs, 0 upgd conss, 0 impls, 0 clqs
(round 2, fast)       638 del vars, 506 del conss, 0 add conss, 1382 chg bounds, 0 chg sides, 0 chg coeffs, 0 upgd conss, 0 impls, 0 clqs
   (0.1s) symmetry computation started: requiring (bin +, int +, cont +), (fixed: bin -, int -, cont -)
   (0.2s) no symmetry present (symcode time: 0.01)
presolving (3 rounds: 3 fast, 1 medium, 1 exhaustive):
 638 deleted vars, 506 deleted constraints, 0 added constraints, 1382 tightened bounds, 0 added holes, 0 changed sides, 0 changed coefficients
 0 implications, 0 cliques
presolved problem has 12762 variables (0 bin, 0 int, 0 impl, 12762 cont) and 3894 constraints
   3494 constraints of type <linear>
    400 constraints of type <nonlinear>
Presolving Time: 0.14

 time | node  | left  |LP iter|LP it/n|mem/heur|mdpt |vars |cons |rows |cuts |sepa|confs|strbr|  dualbound   | primalbound  |  gap   | compl. 
 19.4s|     1 |     0 | 30574 |     - |    89M |   0 |  13k|3894 |5094 |   0 |  0 |   0 |   0 | 2.792769e+04 |      --      |    Inf | unknown
L45.2s|     1 |     0 | 30574 |     - |  subnlp|   0 |  13k|3894 |5094 |   0 |  0 |   0 |   0 | 2.792769e+04 | 5.438587e+04 |  94.74%| unknown
 54.2s|     1 |     0 | 44140 |     - |    90M |   0 |  13k|3894 |5461 | 367 |  1 |   0 |   0 | 4.860624e+04 | 5.438587e+04 |  11.89%| unknown
 54.4s|     1 |     0 | 44141 |     - |    90M |   0 |  13k|3894 |5461 | 367 |  1 |   0 |   0 | 4.860624e+04 | 5.438587e+04 |  11.89%| unknown
 61.1s|     1 |     0 | 54975 |     - |    91M |   0 |  13k|3894 |5830 | 736 |  2 |   0 |   0 | 5.329381e+04 | 5.438587e+04 |   2.05%| unknown
 64.4s|     1 |     0 | 60223 |     - |    92M |   0 |  13k|3894 |6192 |1098 |  3 |   0 |   0 | 5.405599e+04 | 5.438587e+04 |   0.61%| unknown
 66.6s|     1 |     0 | 63815 |     - |    92M |   0 |  13k|3894 |6557 |1463 |  4 |   0 |   0 | 5.429463e+04 | 5.438587e+04 |   0.17%| unknown
 68.0s|     1 |     0 | 66212 |     - |    92M |   0 |  13k|3894 |6923 |1829 |  5 |   0 |   0 | 5.436105e+04 | 5.438587e+04 |   0.05%| unknown
 68.8s|     1 |     0 | 67693 |     - |    92M |   0 |  13k|3894 |7283 |2189 |  6 |   0 |   0 | 5.437852e+04 | 5.438587e+04 |   0.01%| unknown
 70.3s|     1 |     0 | 70171 |     - |    92M |   0 |  13k|3894 |7645 |2551 |  7 |   0 |   0 | 5.438372e+04 | 5.438587e+04 |   0.00%| unknown
 71.1s|     1 |     0 | 71466 |     - |    92M |   0 |  13k|3894 |7998 |2904 |  8 |   0 |   0 | 5.438536e+04 | 5.438587e+04 |   0.00%| unknown
 71.8s|     1 |     0 | 72624 |     - |    92M |   0 |  13k|3894 |8333 |3239 |  9 |   0 |   0 | 5.438572e+04 | 5.438587e+04 |   0.00%| unknown
 72.5s|     1 |     0 | 73798 |     - |    93M |   0 |  13k|3894 |7602 |3550 | 10 |   0 |   0 | 5.438583e+04 | 5.438587e+04 |   0.00%| unknown

SCIP Status        : solving was interrupted [gap limit reached]
Solving Time (sec) : 72.50
Solving Nodes      : 1
Primal Bound       : +5.43858659275744e+04 (2 solutions)
Dual Bound         : +5.43858310566925e+04
Gap                : 0.00 %
primal_bound = 54385.865927574414, dual_bound = 54385.831056692456, gap = 6.411754481353348e-5, time = 75.28
